NAME : amz2337.121535_118535.tour
COMMENT : Cost = 121535_118535
COMMENT : Found by LKH-AMZ [Keld Helsgaun] Sun May 11 13:52:06 2025
COMMENT : TW viol.: 0 #: 0
TYPE : TOUR
DIMENSION : 134
TOUR_SECTION
94
134
60
22
19
17
3
116
54
110
51
108
34
30
119
43
29
84
64
1
100
24
102
96
10
72
57
128
6
49
93
26
125
11
2
95
23
99
32
78
18
35
68
75
127
25
69
28
73
67
20
39
15
92
70
112
38
44
123
88
121
52
80
12
62
105
79
101
97
53
58
104
61
83
46
114
63
47
4
40
90
89
85
74
31
8
87
33
132
14
120
66
36
9
13
118
82
77
113
129
115
7
103
106
5
86
131
130
107
41
50
65
71
91
16
109
55
48
81
111
59
98
122
56
76
21
126
42
27
45
124
117
37
133
-1
EOF
